p cnf 13 24
13 -11 -2 0
-13 -10 9 0
-13 -10 -7 0
13 -9 8 0
13 -4 1 0
12 10 3 0
12 -7 5 0
12 5 1 0
-12 -2 1 0
11 10 6 0
11 -10 -3 0
11 -9 1 0
10 9 4 0
10 8 1 0
-10 7 -4 0
10 6 4 0
9 -7 1 0
9 4 -1 0
8 7 6 0
8 -7 -1 0
8 2 -1 0
6 -5 3 0
6 2 -1 0
3 2 -1 0
